WARNING: for repeatability, setting FPU to use double precision
============================[ Problem Statistics ]=============================
|                                                                             |
|  Number of variables:            50                                         |
|  Number of clauses:             218                                         |
|  Parse time:                   0.00 s                                       |
|                                                                             |
============================[ Search Statistics ]==============================
| Conflicts |          ORIGINAL         |          LEARNT          | Progress |
|           |    Vars  Clauses Literals |    Limit  Clauses Lit/Cl |          |
===============================================================================
===============================================================================
restarts              : 1
conflicts             : 59             (39651 /sec)
decisions             : 74             (0.00 % random) (49731 /sec)
propagations          : 858            (576613 /sec)
conflict literals     : 287            (11.69 % deleted)
Memory used           : 20.00 MB
CPU time              : 0.001488 s

SATISFIABLE
